Maximize 
+ C(1) + C(2) + C(3) + C(4) + C(5) + C(6) + C(7) + C(8) + C(9) + C(10) + C(11) + C(12) + C(13) + C(14) + C(15) + C(16) + C(17) + C(18) + C(19) + C(20) + C(21) + C(22) + C(23) + C(24) + C(25) + C(26) + C(27) + C(28) + C(29) + C(30) + C(31) + C(32) + C(33) + C(34) + C(35) + C(36) + C(37) + C(38) + C(39) + C(40) + C(41) + C(42) + C(43) + C(44) + C(45) + C(46) + C(47) + C(48) + C(49) + C(50) + C(51) + C(52) + C(53) + C(54) + C(55) + C(56) + C(57) + C(58) + C(59) + C(60) + C(61) + C(62) + C(63) + C(64) + C(65) + C(66) + C(67) + C(68) + C(69) + C(70) + C(71) + C(72) + C(73) + C(74) + C(75) + C(76) + C(77) + C(78) + C(79) + C(80) + C(81) + C(82) + C(83) + C(84) + C(85) + C(86) + C(87) + C(88) + C(89) + C(90) + C(91) + C(92) + C(93) + C(94) + C(95) + C(96) + C(97) + C(98) + C(99) + C(100) + C(101) + C(102) + C(103) + C(104) + C(105) + C(106) + C(107) + C(108) + C(109) 
such that 

C(1) + C(4) <= 1
C(1) + C(13) <= 1
C(1) + C(20) <= 1
C(1) + C(29) <= 1
C(1) + C(30) <= 1
C(1) + C(31) <= 1
C(1) + C(40) <= 1
C(1) + C(41) <= 1
C(1) + C(42) <= 1
C(1) + C(48) <= 1
C(1) + C(52) <= 1
C(1) + C(56) <= 1
C(1) + C(59) <= 1
C(1) + C(61) <= 1
C(1) + C(69) <= 1
C(1) + C(70) <= 1
C(1) + C(72) <= 1
C(1) + C(73) <= 1
C(1) + C(75) <= 1
C(1) + C(80) <= 1
C(1) + C(83) <= 1
C(1) + C(86) <= 1
C(1) + C(89) <= 1
C(1) + C(94) <= 1
C(1) + C(96) <= 1
C(1) + C(100) <= 1
C(1) + C(101) <= 1
C(1) + C(104) <= 1
C(2) + C(4) <= 1
C(2) + C(9) <= 1
C(2) + C(19) <= 1
C(2) + C(21) <= 1
C(2) + C(28) <= 1
C(2) + C(34) <= 1
C(2) + C(38) <= 1
C(2) + C(43) <= 1
C(2) + C(46) <= 1
C(2) + C(50) <= 1
C(2) + C(52) <= 1
C(2) + C(57) <= 1
C(2) + C(61) <= 1
C(2) + C(66) <= 1
C(2) + C(69) <= 1
C(2) + C(71) <= 1
C(2) + C(95) <= 1
C(2) + C(96) <= 1
C(2) + C(102) <= 1
C(2) + C(105) <= 1
C(2) + C(108) <= 1
C(3) + C(5) <= 1
C(3) + C(9) <= 1
C(3) + C(10) <= 1
C(3) + C(13) <= 1
C(3) + C(14) <= 1
C(3) + C(15) <= 1
C(3) + C(16) <= 1
C(3) + C(18) <= 1
C(3) + C(27) <= 1
C(3) + C(29) <= 1
C(3) + C(31) <= 1
C(3) + C(32) <= 1
C(3) + C(33) <= 1
C(3) + C(35) <= 1
C(3) + C(36) <= 1
C(3) + C(37) <= 1
C(3) + C(43) <= 1
C(3) + C(45) <= 1
C(3) + C(51) <= 1
C(3) + C(52) <= 1
C(3) + C(55) <= 1
C(3) + C(58) <= 1
C(3) + C(60) <= 1
C(3) + C(63) <= 1
C(3) + C(67) <= 1
C(3) + C(72) <= 1
C(3) + C(76) <= 1
C(3) + C(77) <= 1
C(3) + C(78) <= 1
C(3) + C(79) <= 1
C(3) + C(89) <= 1
C(3) + C(90) <= 1
C(3) + C(96) <= 1
C(3) + C(97) <= 1
C(4) + C(5) <= 1
C(4) + C(7) <= 1
C(4) + C(10) <= 1
C(4) + C(12) <= 1
C(4) + C(17) <= 1
C(4) + C(26) <= 1
C(4) + C(28) <= 1
C(4) + C(47) <= 1
C(4) + C(48) <= 1
C(4) + C(49) <= 1
C(4) + C(52) <= 1
C(4) + C(57) <= 1
C(4) + C(60) <= 1
C(4) + C(62) <= 1
C(4) + C(63) <= 1
C(4) + C(64) <= 1
C(4) + C(86) <= 1
C(4) + C(87) <= 1
C(4) + C(95) <= 1
C(4) + C(96) <= 1
C(4) + C(103) <= 1
C(4) + C(108) <= 1
C(4) + C(109) <= 1
C(5) + C(19) <= 1
C(5) + C(20) <= 1
C(5) + C(22) <= 1
C(5) + C(23) <= 1
C(5) + C(27) <= 1
C(5) + C(32) <= 1
C(5) + C(38) <= 1
C(5) + C(41) <= 1
C(5) + C(42) <= 1
C(5) + C(44) <= 1
C(5) + C(56) <= 1
C(5) + C(65) <= 1
C(5) + C(77) <= 1
C(5) + C(78) <= 1
C(5) + C(82) <= 1
C(5) + C(83) <= 1
C(5) + C(84) <= 1
C(5) + C(86) <= 1
C(5) + C(87) <= 1
C(5) + C(91) <= 1
C(5) + C(96) <= 1
C(5) + C(97) <= 1
C(5) + C(104) <= 1
C(5) + C(107) <= 1
C(5) + C(109) <= 1
C(6) + C(8) <= 1
C(6) + C(25) <= 1
C(6) + C(27) <= 1
C(6) + C(33) <= 1
C(6) + C(37) <= 1
C(6) + C(40) <= 1
C(6) + C(41) <= 1
C(6) + C(45) <= 1
C(6) + C(47) <= 1
C(6) + C(49) <= 1
C(6) + C(55) <= 1
C(6) + C(57) <= 1
C(6) + C(83) <= 1
C(6) + C(93) <= 1
C(6) + C(94) <= 1
C(6) + C(98) <= 1
C(6) + C(108) <= 1
C(7) + C(12) <= 1
C(7) + C(16) <= 1
C(7) + C(19) <= 1
C(7) + C(20) <= 1
C(7) + C(24) <= 1
C(7) + C(25) <= 1
C(7) + C(28) <= 1
C(7) + C(34) <= 1
C(7) + C(39) <= 1
C(7) + C(40) <= 1
C(7) + C(42) <= 1
C(7) + C(43) <= 1
C(7) + C(47) <= 1
C(7) + C(49) <= 1
C(7) + C(55) <= 1
C(7) + C(59) <= 1
C(7) + C(60) <= 1
C(7) + C(62) <= 1
C(7) + C(63) <= 1
C(7) + C(64) <= 1
C(7) + C(66) <= 1
C(7) + C(74) <= 1
C(7) + C(75) <= 1
C(7) + C(78) <= 1
C(7) + C(79) <= 1
C(7) + C(82) <= 1
C(7) + C(84) <= 1
C(7) + C(85) <= 1
C(7) + C(87) <= 1
C(7) + C(88) <= 1
C(7) + C(89) <= 1
C(7) + C(93) <= 1
C(7) + C(95) <= 1
C(7) + C(105) <= 1
C(7) + C(107) <= 1
C(8) + C(10) <= 1
C(8) + C(11) <= 1
C(8) + C(12) <= 1
C(8) + C(13) <= 1
C(8) + C(20) <= 1
C(8) + C(34) <= 1
C(8) + C(38) <= 1
C(8) + C(41) <= 1
C(8) + C(44) <= 1
C(8) + C(51) <= 1
C(8) + C(53) <= 1
C(8) + C(55) <= 1
C(8) + C(60) <= 1
C(8) + C(63) <= 1
C(8) + C(67) <= 1
C(8) + C(71) <= 1
C(8) + C(73) <= 1
C(8) + C(77) <= 1
C(8) + C(78) <= 1
C(8) + C(79) <= 1
C(8) + C(80) <= 1
C(8) + C(82) <= 1
C(8) + C(83) <= 1
C(8) + C(91) <= 1
C(8) + C(98) <= 1
C(8) + C(99) <= 1
C(8) + C(104) <= 1
C(8) + C(106) <= 1
C(8) + C(108) <= 1
C(9) + C(12) <= 1
C(9) + C(18) <= 1
C(9) + C(19) <= 1
C(9) + C(20) <= 1
C(9) + C(25) <= 1
C(9) + C(40) <= 1
C(9) + C(42) <= 1
C(9) + C(46) <= 1
C(9) + C(53) <= 1
C(9) + C(59) <= 1
C(9) + C(61) <= 1
C(9) + C(63) <= 1
C(9) + C(67) <= 1
C(9) + C(70) <= 1
C(9) + C(79) <= 1
C(9) + C(80) <= 1
C(9) + C(81) <= 1
C(9) + C(86) <= 1
C(9) + C(91) <= 1
C(9) + C(95) <= 1
C(9) + C(100) <= 1
C(9) + C(104) <= 1
C(9) + C(105) <= 1
C(9) + C(108) <= 1
C(9) + C(109) <= 1
C(10) + C(12) <= 1
C(10) + C(20) <= 1
C(10) + C(24) <= 1
C(10) + C(25) <= 1
C(10) + C(36) <= 1
C(10) + C(39) <= 1
C(10) + C(45) <= 1
C(10) + C(49) <= 1
C(10) + C(56) <= 1
C(10) + C(64) <= 1
C(10) + C(65) <= 1
C(10) + C(80) <= 1
C(10) + C(81) <= 1
C(10) + C(84) <= 1
C(10) + C(90) <= 1
C(10) + C(94) <= 1
C(10) + C(97) <= 1
C(10) + C(100) <= 1
C(10) + C(102) <= 1
C(11) + C(12) <= 1
C(11) + C(20) <= 1
C(11) + C(24) <= 1
C(11) + C(26) <= 1
C(11) + C(27) <= 1
C(11) + C(31) <= 1
C(11) + C(32) <= 1
C(11) + C(37) <= 1
C(11) + C(39) <= 1
C(11) + C(41) <= 1
C(11) + C(44) <= 1
C(11) + C(47) <= 1
C(11) + C(48) <= 1
C(11) + C(56) <= 1
C(11) + C(64) <= 1
C(11) + C(67) <= 1
C(11) + C(71) <= 1
C(11) + C(73) <= 1
C(11) + C(82) <= 1
C(11) + C(85) <= 1
C(11) + C(89) <= 1
C(11) + C(90) <= 1
C(11) + C(100) <= 1
C(11) + C(105) <= 1
C(11) + C(107) <= 1
C(11) + C(109) <= 1
C(12) + C(17) <= 1
C(12) + C(20) <= 1
C(12) + C(21) <= 1
C(12) + C(27) <= 1
C(12) + C(29) <= 1
C(12) + C(32) <= 1
C(12) + C(33) <= 1
C(12) + C(39) <= 1
C(12) + C(41) <= 1
C(12) + C(42) <= 1
C(12) + C(44) <= 1
C(12) + C(46) <= 1
C(12) + C(54) <= 1
C(12) + C(56) <= 1
C(12) + C(61) <= 1
C(12) + C(65) <= 1
C(12) + C(68) <= 1
C(12) + C(69) <= 1
C(12) + C(73) <= 1
C(12) + C(74) <= 1
C(12) + C(79) <= 1
C(12) + C(81) <= 1
C(12) + C(85) <= 1
C(12) + C(92) <= 1
C(12) + C(93) <= 1
C(12) + C(99) <= 1
C(12) + C(100) <= 1
C(12) + C(101) <= 1
C(12) + C(103) <= 1
C(12) + C(108) <= 1
C(13) + C(19) <= 1
C(13) + C(20) <= 1
C(13) + C(21) <= 1
C(13) + C(23) <= 1
C(13) + C(30) <= 1
C(13) + C(35) <= 1
C(13) + C(39) <= 1
C(13) + C(40) <= 1
C(13) + C(42) <= 1
C(13) + C(47) <= 1
C(13) + C(48) <= 1
C(13) + C(59) <= 1
C(13) + C(67) <= 1
C(13) + C(68) <= 1
C(13) + C(72) <= 1
C(13) + C(76) <= 1
C(13) + C(77) <= 1
C(13) + C(79) <= 1
C(13) + C(101) <= 1
C(13) + C(103) <= 1
C(14) + C(15) <= 1
C(14) + C(18) <= 1
C(14) + C(23) <= 1
C(14) + C(26) <= 1
C(14) + C(28) <= 1
C(14) + C(30) <= 1
C(14) + C(39) <= 1
C(14) + C(42) <= 1
C(14) + C(46) <= 1
C(14) + C(51) <= 1
C(14) + C(58) <= 1
C(14) + C(59) <= 1
C(14) + C(60) <= 1
C(14) + C(62) <= 1
C(14) + C(63) <= 1
C(14) + C(67) <= 1
C(14) + C(68) <= 1
C(14) + C(71) <= 1
C(14) + C(74) <= 1
C(14) + C(79) <= 1
C(14) + C(80) <= 1
C(14) + C(90) <= 1
C(14) + C(93) <= 1
C(14) + C(96) <= 1
C(14) + C(101) <= 1
C(14) + C(103) <= 1
C(14) + C(107) <= 1
C(15) + C(16) <= 1
C(15) + C(18) <= 1
C(15) + C(32) <= 1
C(15) + C(43) <= 1
C(15) + C(44) <= 1
C(15) + C(48) <= 1
C(15) + C(49) <= 1
C(15) + C(52) <= 1
C(15) + C(60) <= 1
C(15) + C(62) <= 1
C(15) + C(65) <= 1
C(15) + C(72) <= 1
C(15) + C(73) <= 1
C(15) + C(80) <= 1
C(15) + C(83) <= 1
C(15) + C(88) <= 1
C(15) + C(91) <= 1
C(15) + C(98) <= 1
C(15) + C(101) <= 1
C(15) + C(102) <= 1
C(15) + C(103) <= 1
C(15) + C(104) <= 1
C(15) + C(105) <= 1
C(15) + C(107) <= 1
C(15) + C(108) <= 1
C(16) + C(22) <= 1
C(16) + C(23) <= 1
C(16) + C(25) <= 1
C(16) + C(31) <= 1
C(16) + C(32) <= 1
C(16) + C(45) <= 1
C(16) + C(49) <= 1
C(16) + C(52) <= 1
C(16) + C(54) <= 1
C(16) + C(68) <= 1
C(16) + C(70) <= 1
C(16) + C(78) <= 1
C(16) + C(83) <= 1
C(16) + C(84) <= 1
C(16) + C(88) <= 1
C(16) + C(94) <= 1
C(16) + C(99) <= 1
C(16) + C(108) <= 1
C(17) + C(20) <= 1
C(17) + C(21) <= 1
C(17) + C(31) <= 1
C(17) + C(41) <= 1
C(17) + C(54) <= 1
C(17) + C(56) <= 1
C(17) + C(57) <= 1
C(17) + C(59) <= 1
C(17) + C(63) <= 1
C(17) + C(68) <= 1
C(17) + C(72) <= 1
C(17) + C(74) <= 1
C(17) + C(75) <= 1
C(17) + C(79) <= 1
C(17) + C(84) <= 1
C(17) + C(93) <= 1
C(17) + C(99) <= 1
C(17) + C(104) <= 1
C(18) + C(20) <= 1
C(18) + C(21) <= 1
C(18) + C(23) <= 1
C(18) + C(25) <= 1
C(18) + C(30) <= 1
C(18) + C(31) <= 1
C(18) + C(35) <= 1
C(18) + C(40) <= 1
C(18) + C(41) <= 1
C(18) + C(45) <= 1
C(18) + C(50) <= 1
C(18) + C(51) <= 1
C(18) + C(55) <= 1
C(18) + C(63) <= 1
C(18) + C(66) <= 1
C(18) + C(67) <= 1
C(18) + C(69) <= 1
C(18) + C(74) <= 1
C(18) + C(77) <= 1
C(18) + C(81) <= 1
C(18) + C(84) <= 1
C(18) + C(96) <= 1
C(18) + C(99) <= 1
C(18) + C(100) <= 1
C(18) + C(103) <= 1
C(18) + C(109) <= 1
C(19) + C(24) <= 1
C(19) + C(29) <= 1
C(19) + C(31) <= 1
C(19) + C(34) <= 1
C(19) + C(36) <= 1
C(19) + C(38) <= 1
C(19) + C(42) <= 1
C(19) + C(44) <= 1
C(19) + C(48) <= 1
C(19) + C(57) <= 1
C(19) + C(59) <= 1
C(19) + C(72) <= 1
C(19) + C(79) <= 1
C(19) + C(85) <= 1
C(19) + C(88) <= 1
C(19) + C(106) <= 1
C(20) + C(21) <= 1
C(20) + C(24) <= 1
C(20) + C(25) <= 1
C(20) + C(35) <= 1
C(20) + C(46) <= 1
C(20) + C(55) <= 1
C(20) + C(60) <= 1
C(20) + C(66) <= 1
C(20) + C(76) <= 1
C(20) + C(78) <= 1
C(20) + C(80) <= 1
C(20) + C(82) <= 1
C(20) + C(89) <= 1
C(20) + C(90) <= 1
C(20) + C(100) <= 1
C(20) + C(101) <= 1
C(20) + C(106) <= 1
C(21) + C(27) <= 1
C(21) + C(31) <= 1
C(21) + C(33) <= 1
C(21) + C(34) <= 1
C(21) + C(42) <= 1
C(21) + C(45) <= 1
C(21) + C(47) <= 1
C(21) + C(48) <= 1
C(21) + C(49) <= 1
C(21) + C(51) <= 1
C(21) + C(55) <= 1
C(21) + C(56) <= 1
C(21) + C(66) <= 1
C(21) + C(68) <= 1
C(21) + C(70) <= 1
C(21) + C(72) <= 1
C(21) + C(73) <= 1
C(21) + C(76) <= 1
C(21) + C(77) <= 1
C(21) + C(80) <= 1
C(21) + C(89) <= 1
C(21) + C(90) <= 1
C(21) + C(93) <= 1
C(21) + C(96) <= 1
C(21) + C(98) <= 1
C(21) + C(99) <= 1
C(21) + C(101) <= 1
C(21) + C(102) <= 1
C(21) + C(109) <= 1
C(22) + C(30) <= 1
C(22) + C(33) <= 1
C(22) + C(35) <= 1
C(22) + C(45) <= 1
C(22) + C(47) <= 1
C(22) + C(53) <= 1
C(22) + C(58) <= 1
C(22) + C(68) <= 1
C(22) + C(71) <= 1
C(22) + C(75) <= 1
C(22) + C(80) <= 1
C(22) + C(81) <= 1
C(22) + C(82) <= 1
C(22) + C(90) <= 1
C(22) + C(92) <= 1
C(22) + C(93) <= 1
C(22) + C(94) <= 1
C(22) + C(97) <= 1
C(22) + C(106) <= 1
C(23) + C(36) <= 1
C(23) + C(41) <= 1
C(23) + C(42) <= 1
C(23) + C(43) <= 1
C(23) + C(49) <= 1
C(23) + C(54) <= 1
C(23) + C(57) <= 1
C(23) + C(60) <= 1
C(23) + C(62) <= 1
C(23) + C(65) <= 1
C(23) + C(71) <= 1
C(23) + C(74) <= 1
C(23) + C(76) <= 1
C(23) + C(84) <= 1
C(23) + C(86) <= 1
C(23) + C(87) <= 1
C(23) + C(97) <= 1
C(23) + C(101) <= 1
C(23) + C(103) <= 1
C(23) + C(107) <= 1
C(24) + C(25) <= 1
C(24) + C(30) <= 1
C(24) + C(47) <= 1
C(24) + C(57) <= 1
C(24) + C(58) <= 1
C(24) + C(60) <= 1
C(24) + C(63) <= 1
C(24) + C(64) <= 1
C(24) + C(68) <= 1
C(24) + C(69) <= 1
C(24) + C(70) <= 1
C(24) + C(76) <= 1
C(24) + C(81) <= 1
C(24) + C(82) <= 1
C(24) + C(86) <= 1
C(24) + C(90) <= 1
C(24) + C(99) <= 1
C(24) + C(100) <= 1
C(24) + C(104) <= 1
C(24) + C(106) <= 1
C(24) + C(107) <= 1
C(25) + C(27) <= 1
C(25) + C(32) <= 1
C(25) + C(34) <= 1
C(25) + C(36) <= 1
C(25) + C(37) <= 1
C(25) + C(41) <= 1
C(25) + C(43) <= 1
C(25) + C(45) <= 1
C(25) + C(47) <= 1
C(25) + C(50) <= 1
C(25) + C(52) <= 1
C(25) + C(56) <= 1
C(25) + C(66) <= 1
C(25) + C(68) <= 1
C(25) + C(74) <= 1
C(25) + C(76) <= 1
C(25) + C(81) <= 1
C(25) + C(82) <= 1
C(25) + C(90) <= 1
C(25) + C(91) <= 1
C(25) + C(93) <= 1
C(25) + C(94) <= 1
C(25) + C(97) <= 1
C(25) + C(100) <= 1
C(25) + C(101) <= 1
C(25) + C(104) <= 1
C(25) + C(108) <= 1
C(26) + C(29) <= 1
C(26) + C(30) <= 1
C(26) + C(35) <= 1
C(26) + C(38) <= 1
C(26) + C(40) <= 1
C(26) + C(47) <= 1
C(26) + C(55) <= 1
C(26) + C(56) <= 1
C(26) + C(58) <= 1
C(26) + C(59) <= 1
C(26) + C(60) <= 1
C(26) + C(66) <= 1
C(26) + C(67) <= 1
C(26) + C(83) <= 1
C(26) + C(84) <= 1
C(26) + C(87) <= 1
C(26) + C(91) <= 1
C(26) + C(92) <= 1
C(26) + C(95) <= 1
C(26) + C(109) <= 1
C(27) + C(30) <= 1
C(27) + C(31) <= 1
C(27) + C(46) <= 1
C(27) + C(48) <= 1
C(27) + C(51) <= 1
C(27) + C(52) <= 1
C(27) + C(54) <= 1
C(27) + C(59) <= 1
C(27) + C(63) <= 1
C(27) + C(67) <= 1
C(27) + C(70) <= 1
C(27) + C(73) <= 1
C(27) + C(76) <= 1
C(27) + C(84) <= 1
C(27) + C(86) <= 1
C(27) + C(89) <= 1
C(27) + C(91) <= 1
C(27) + C(99) <= 1
C(27) + C(103) <= 1
C(27) + C(105) <= 1
C(28) + C(30) <= 1
C(28) + C(39) <= 1
C(28) + C(55) <= 1
C(28) + C(57) <= 1
C(28) + C(62) <= 1
C(28) + C(70) <= 1
C(28) + C(80) <= 1
C(28) + C(83) <= 1
C(28) + C(84) <= 1
C(28) + C(90) <= 1
C(28) + C(97) <= 1
C(28) + C(101) <= 1
C(28) + C(102) <= 1
C(28) + C(106) <= 1
C(29) + C(32) <= 1
C(29) + C(37) <= 1
C(29) + C(47) <= 1
C(29) + C(48) <= 1
C(29) + C(50) <= 1
C(29) + C(53) <= 1
C(29) + C(56) <= 1
C(29) + C(58) <= 1
C(29) + C(62) <= 1
C(29) + C(73) <= 1
C(29) + C(76) <= 1
C(29) + C(79) <= 1
C(29) + C(85) <= 1
C(29) + C(87) <= 1
C(29) + C(89) <= 1
C(29) + C(91) <= 1
C(29) + C(94) <= 1
C(29) + C(99) <= 1
C(29) + C(104) <= 1
C(29) + C(107) <= 1
C(29) + C(108) <= 1
C(29) + C(109) <= 1
C(30) + C(36) <= 1
C(30) + C(48) <= 1
C(30) + C(53) <= 1
C(30) + C(56) <= 1
C(30) + C(57) <= 1
C(30) + C(61) <= 1
C(30) + C(74) <= 1
C(30) + C(79) <= 1
C(30) + C(94) <= 1
C(30) + C(99) <= 1
C(30) + C(101) <= 1
C(30) + C(108) <= 1
C(31) + C(40) <= 1
C(31) + C(48) <= 1
C(31) + C(49) <= 1
C(31) + C(52) <= 1
C(31) + C(66) <= 1
C(31) + C(70) <= 1
C(31) + C(72) <= 1
C(31) + C(73) <= 1
C(31) + C(74) <= 1
C(31) + C(75) <= 1
C(31) + C(76) <= 1
C(31) + C(81) <= 1
C(31) + C(86) <= 1
C(31) + C(97) <= 1
C(31) + C(102) <= 1
C(31) + C(103) <= 1
C(31) + C(105) <= 1
C(31) + C(107) <= 1
C(32) + C(34) <= 1
C(32) + C(41) <= 1
C(32) + C(42) <= 1
C(32) + C(46) <= 1
C(32) + C(49) <= 1
C(32) + C(52) <= 1
C(32) + C(53) <= 1
C(32) + C(56) <= 1
C(32) + C(70) <= 1
C(32) + C(73) <= 1
C(32) + C(78) <= 1
C(32) + C(91) <= 1
C(32) + C(96) <= 1
C(32) + C(99) <= 1
C(32) + C(108) <= 1
C(33) + C(35) <= 1
C(33) + C(36) <= 1
C(33) + C(54) <= 1
C(33) + C(58) <= 1
C(33) + C(61) <= 1
C(33) + C(63) <= 1
C(33) + C(81) <= 1
C(33) + C(83) <= 1
C(33) + C(84) <= 1
C(33) + C(87) <= 1
C(33) + C(90) <= 1
C(33) + C(94) <= 1
C(33) + C(99) <= 1
C(33) + C(102) <= 1
C(33) + C(105) <= 1
C(33) + C(106) <= 1
C(34) + C(36) <= 1
C(34) + C(45) <= 1
C(34) + C(51) <= 1
C(34) + C(57) <= 1
C(34) + C(59) <= 1
C(34) + C(66) <= 1
C(34) + C(76) <= 1
C(34) + C(77) <= 1
C(34) + C(85) <= 1
C(34) + C(88) <= 1
C(34) + C(92) <= 1
C(34) + C(101) <= 1
C(34) + C(106) <= 1
C(35) + C(38) <= 1
C(35) + C(39) <= 1
C(35) + C(44) <= 1
C(35) + C(48) <= 1
C(35) + C(57) <= 1
C(35) + C(61) <= 1
C(35) + C(66) <= 1
C(35) + C(70) <= 1
C(35) + C(73) <= 1
C(35) + C(76) <= 1
C(35) + C(81) <= 1
C(35) + C(93) <= 1
C(35) + C(94) <= 1
C(35) + C(96) <= 1
C(35) + C(97) <= 1
C(35) + C(101) <= 1
C(35) + C(104) <= 1
C(36) + C(37) <= 1
C(36) + C(47) <= 1
C(36) + C(49) <= 1
C(36) + C(50) <= 1
C(36) + C(56) <= 1
C(36) + C(57) <= 1
C(36) + C(63) <= 1
C(36) + C(69) <= 1
C(36) + C(70) <= 1
C(36) + C(71) <= 1
C(36) + C(72) <= 1
C(36) + C(76) <= 1
C(36) + C(78) <= 1
C(36) + C(80) <= 1
C(36) + C(84) <= 1
C(36) + C(85) <= 1
C(36) + C(87) <= 1
C(36) + C(93) <= 1
C(36) + C(94) <= 1
C(36) + C(96) <= 1
C(36) + C(107) <= 1
C(36) + C(109) <= 1
C(37) + C(40) <= 1
C(37) + C(59) <= 1
C(37) + C(67) <= 1
C(37) + C(69) <= 1
C(37) + C(70) <= 1
C(37) + C(80) <= 1
C(37) + C(96) <= 1
C(37) + C(104) <= 1
C(37) + C(107) <= 1
C(38) + C(39) <= 1
C(38) + C(42) <= 1
C(38) + C(46) <= 1
C(38) + C(47) <= 1
C(38) + C(48) <= 1
C(38) + C(57) <= 1
C(38) + C(58) <= 1
C(38) + C(59) <= 1
C(38) + C(65) <= 1
C(38) + C(67) <= 1
C(38) + C(73) <= 1
C(38) + C(75) <= 1
C(38) + C(79) <= 1
C(38) + C(94) <= 1
C(38) + C(95) <= 1
C(38) + C(96) <= 1
C(39) + C(43) <= 1
C(39) + C(44) <= 1
C(39) + C(45) <= 1
C(39) + C(61) <= 1
C(39) + C(62) <= 1
C(39) + C(63) <= 1
C(39) + C(64) <= 1
C(39) + C(66) <= 1
C(39) + C(73) <= 1
C(39) + C(75) <= 1
C(39) + C(81) <= 1
C(39) + C(82) <= 1
C(39) + C(84) <= 1
C(39) + C(87) <= 1
C(39) + C(88) <= 1
C(39) + C(89) <= 1
C(39) + C(90) <= 1
C(39) + C(100) <= 1
C(39) + C(102) <= 1
C(39) + C(109) <= 1
C(40) + C(41) <= 1
C(40) + C(47) <= 1
C(40) + C(49) <= 1
C(40) + C(60) <= 1
C(40) + C(61) <= 1
C(40) + C(63) <= 1
C(40) + C(64) <= 1
C(40) + C(65) <= 1
C(40) + C(67) <= 1
C(40) + C(84) <= 1
C(40) + C(85) <= 1
C(40) + C(88) <= 1
C(40) + C(94) <= 1
C(40) + C(96) <= 1
C(40) + C(99) <= 1
C(40) + C(105) <= 1
C(41) + C(44) <= 1
C(41) + C(47) <= 1
C(41) + C(50) <= 1
C(41) + C(54) <= 1
C(41) + C(55) <= 1
C(41) + C(57) <= 1
C(41) + C(58) <= 1
C(41) + C(66) <= 1
C(41) + C(73) <= 1
C(41) + C(75) <= 1
C(41) + C(85) <= 1
C(41) + C(87) <= 1
C(41) + C(89) <= 1
C(41) + C(92) <= 1
C(41) + C(93) <= 1
C(41) + C(99) <= 1
C(41) + C(100) <= 1
C(41) + C(103) <= 1
C(42) + C(48) <= 1
C(42) + C(49) <= 1
C(42) + C(54) <= 1
C(42) + C(61) <= 1
C(42) + C(62) <= 1
C(42) + C(64) <= 1
C(42) + C(66) <= 1
C(42) + C(67) <= 1
C(42) + C(72) <= 1
C(42) + C(81) <= 1
C(42) + C(83) <= 1
C(42) + C(94) <= 1
C(42) + C(95) <= 1
C(42) + C(107) <= 1
C(43) + C(48) <= 1
C(43) + C(49) <= 1
C(43) + C(50) <= 1
C(43) + C(54) <= 1
C(43) + C(57) <= 1
C(43) + C(58) <= 1
C(43) + C(59) <= 1
C(43) + C(60) <= 1
C(43) + C(66) <= 1
C(43) + C(67) <= 1
C(43) + C(72) <= 1
C(43) + C(75) <= 1
C(43) + C(78) <= 1
C(43) + C(79) <= 1
C(43) + C(82) <= 1
C(43) + C(88) <= 1
C(43) + C(89) <= 1
C(43) + C(92) <= 1
C(43) + C(93) <= 1
C(43) + C(96) <= 1
C(43) + C(108) <= 1
C(44) + C(45) <= 1
C(44) + C(48) <= 1
C(44) + C(50) <= 1
C(44) + C(53) <= 1
C(44) + C(56) <= 1
C(44) + C(57) <= 1
C(44) + C(61) <= 1
C(44) + C(66) <= 1
C(44) + C(68) <= 1
C(44) + C(69) <= 1
C(44) + C(73) <= 1
C(44) + C(76) <= 1
C(44) + C(78) <= 1
C(44) + C(79) <= 1
C(44) + C(80) <= 1
C(44) + C(85) <= 1
C(44) + C(90) <= 1
C(44) + C(94) <= 1
C(44) + C(96) <= 1
C(44) + C(98) <= 1
C(44) + C(107) <= 1
C(44) + C(108) <= 1
C(45) + C(46) <= 1
C(45) + C(49) <= 1
C(45) + C(50) <= 1
C(45) + C(51) <= 1
C(45) + C(52) <= 1
C(45) + C(53) <= 1
C(45) + C(61) <= 1
C(45) + C(62) <= 1
C(45) + C(65) <= 1
C(45) + C(67) <= 1
C(45) + C(77) <= 1
C(45) + C(78) <= 1
C(45) + C(85) <= 1
C(45) + C(88) <= 1
C(45) + C(95) <= 1
C(45) + C(99) <= 1
C(45) + C(104) <= 1
C(46) + C(48) <= 1
C(46) + C(53) <= 1
C(46) + C(55) <= 1
C(46) + C(58) <= 1
C(46) + C(59) <= 1
C(46) + C(61) <= 1
C(46) + C(68) <= 1
C(46) + C(72) <= 1
C(46) + C(73) <= 1
C(46) + C(77) <= 1
C(46) + C(78) <= 1
C(46) + C(79) <= 1
C(46) + C(83) <= 1
C(46) + C(86) <= 1
C(46) + C(92) <= 1
C(46) + C(96) <= 1
C(46) + C(102) <= 1
C(46) + C(103) <= 1
C(46) + C(104) <= 1
C(47) + C(57) <= 1
C(47) + C(61) <= 1
C(47) + C(64) <= 1
C(47) + C(69) <= 1
C(47) + C(70) <= 1
C(47) + C(72) <= 1
C(47) + C(76) <= 1
C(47) + C(78) <= 1
C(47) + C(81) <= 1
C(47) + C(93) <= 1
C(47) + C(95) <= 1
C(47) + C(99) <= 1
C(47) + C(102) <= 1
C(47) + C(107) <= 1
C(48) + C(52) <= 1
C(48) + C(60) <= 1
C(48) + C(65) <= 1
C(48) + C(68) <= 1
C(48) + C(78) <= 1
C(48) + C(83) <= 1
C(48) + C(86) <= 1
C(48) + C(89) <= 1
C(48) + C(90) <= 1
C(48) + C(93) <= 1
C(48) + C(95) <= 1
C(48) + C(96) <= 1
C(49) + C(59) <= 1
C(49) + C(64) <= 1
C(49) + C(66) <= 1
C(49) + C(67) <= 1
C(49) + C(68) <= 1
C(49) + C(72) <= 1
C(49) + C(75) <= 1
C(49) + C(76) <= 1
C(49) + C(87) <= 1
C(49) + C(96) <= 1
C(49) + C(97) <= 1
C(49) + C(99) <= 1
C(49) + C(101) <= 1
C(49) + C(103) <= 1
C(49) + C(107) <= 1
C(49) + C(109) <= 1
C(50) + C(51) <= 1
C(50) + C(66) <= 1
C(50) + C(83) <= 1
C(50) + C(85) <= 1
C(50) + C(86) <= 1
C(50) + C(87) <= 1
C(50) + C(89) <= 1
C(50) + C(91) <= 1
C(50) + C(94) <= 1
C(50) + C(100) <= 1
C(50) + C(101) <= 1
C(50) + C(105) <= 1
C(50) + C(107) <= 1
C(50) + C(108) <= 1
C(51) + C(52) <= 1
C(51) + C(53) <= 1
C(51) + C(58) <= 1
C(51) + C(62) <= 1
C(51) + C(63) <= 1
C(51) + C(64) <= 1
C(51) + C(68) <= 1
C(51) + C(74) <= 1
C(51) + C(77) <= 1
C(51) + C(79) <= 1
C(51) + C(83) <= 1
C(51) + C(85) <= 1
C(51) + C(86) <= 1
C(51) + C(87) <= 1
C(51) + C(91) <= 1
C(51) + C(94) <= 1
C(51) + C(95) <= 1
C(51) + C(104) <= 1
C(51) + C(106) <= 1
C(51) + C(107) <= 1
C(51) + C(108) <= 1
C(52) + C(53) <= 1
C(52) + C(77) <= 1
C(52) + C(81) <= 1
C(52) + C(85) <= 1
C(52) + C(86) <= 1
C(52) + C(94) <= 1
C(52) + C(95) <= 1
C(52) + C(96) <= 1
C(52) + C(99) <= 1
C(52) + C(105) <= 1
C(53) + C(59) <= 1
C(53) + C(63) <= 1
C(53) + C(68) <= 1
C(53) + C(73) <= 1
C(53) + C(75) <= 1
C(53) + C(76) <= 1
C(53) + C(79) <= 1
C(53) + C(81) <= 1
C(53) + C(88) <= 1
C(53) + C(89) <= 1
C(53) + C(97) <= 1
C(53) + C(99) <= 1
C(53) + C(100) <= 1
C(53) + C(101) <= 1
C(53) + C(102) <= 1
C(53) + C(103) <= 1
C(53) + C(106) <= 1
C(53) + C(109) <= 1
C(54) + C(57) <= 1
C(54) + C(59) <= 1
C(54) + C(60) <= 1
C(54) + C(63) <= 1
C(54) + C(66) <= 1
C(54) + C(72) <= 1
C(54) + C(76) <= 1
C(54) + C(77) <= 1
C(54) + C(81) <= 1
C(54) + C(104) <= 1
C(55) + C(57) <= 1
C(55) + C(60) <= 1
C(55) + C(62) <= 1
C(55) + C(66) <= 1
C(55) + C(72) <= 1
C(55) + C(79) <= 1
C(55) + C(82) <= 1
C(55) + C(87) <= 1
C(55) + C(88) <= 1
C(55) + C(96) <= 1
C(55) + C(100) <= 1
C(55) + C(105) <= 1
C(55) + C(106) <= 1
C(55) + C(107) <= 1
C(56) + C(66) <= 1
C(56) + C(67) <= 1
C(56) + C(68) <= 1
C(56) + C(69) <= 1
C(56) + C(73) <= 1
C(56) + C(74) <= 1
C(56) + C(76) <= 1
C(56) + C(78) <= 1
C(56) + C(82) <= 1
C(56) + C(87) <= 1
C(56) + C(88) <= 1
C(56) + C(89) <= 1
C(56) + C(90) <= 1
C(56) + C(92) <= 1
C(56) + C(93) <= 1
C(56) + C(97) <= 1
C(56) + C(99) <= 1
C(56) + C(101) <= 1
C(57) + C(62) <= 1
C(57) + C(65) <= 1
C(57) + C(66) <= 1
C(57) + C(67) <= 1
C(57) + C(72) <= 1
C(57) + C(74) <= 1
C(57) + C(77) <= 1
C(57) + C(83) <= 1
C(57) + C(88) <= 1
C(57) + C(93) <= 1
C(57) + C(105) <= 1
C(57) + C(106) <= 1
C(58) + C(61) <= 1
C(58) + C(63) <= 1
C(58) + C(66) <= 1
C(58) + C(68) <= 1
C(58) + C(71) <= 1
C(58) + C(74) <= 1
C(58) + C(75) <= 1
C(58) + C(78) <= 1
C(58) + C(80) <= 1
C(58) + C(81) <= 1
C(58) + C(84) <= 1
C(58) + C(89) <= 1
C(58) + C(91) <= 1
C(58) + C(94) <= 1
C(58) + C(96) <= 1
C(58) + C(97) <= 1
C(58) + C(100) <= 1
C(58) + C(101) <= 1
C(58) + C(103) <= 1
C(58) + C(104) <= 1
C(58) + C(107) <= 1
C(58) + C(108) <= 1
C(59) + C(66) <= 1
C(59) + C(70) <= 1
C(59) + C(74) <= 1
C(59) + C(85) <= 1
C(59) + C(100) <= 1
C(59) + C(104) <= 1
C(59) + C(105) <= 1
C(60) + C(61) <= 1
C(60) + C(67) <= 1
C(60) + C(74) <= 1
C(60) + C(77) <= 1
C(60) + C(78) <= 1
C(60) + C(85) <= 1
C(60) + C(90) <= 1
C(60) + C(93) <= 1
C(60) + C(94) <= 1
C(60) + C(100) <= 1
C(60) + C(105) <= 1
C(60) + C(107) <= 1
C(61) + C(62) <= 1
C(61) + C(65) <= 1
C(61) + C(66) <= 1
C(61) + C(73) <= 1
C(61) + C(75) <= 1
C(61) + C(76) <= 1
C(61) + C(78) <= 1
C(61) + C(87) <= 1
C(61) + C(98) <= 1
C(61) + C(101) <= 1
C(61) + C(107) <= 1
C(61) + C(108) <= 1
C(62) + C(70) <= 1
C(62) + C(71) <= 1
C(62) + C(75) <= 1
C(62) + C(79) <= 1
C(62) + C(80) <= 1
C(62) + C(81) <= 1
C(62) + C(87) <= 1
C(62) + C(89) <= 1
C(62) + C(91) <= 1
C(62) + C(93) <= 1
C(62) + C(96) <= 1
C(62) + C(108) <= 1
C(63) + C(71) <= 1
C(63) + C(75) <= 1
C(63) + C(82) <= 1
C(63) + C(91) <= 1
C(63) + C(92) <= 1
C(63) + C(98) <= 1
C(63) + C(101) <= 1
C(63) + C(102) <= 1
C(63) + C(105) <= 1
C(63) + C(106) <= 1
C(63) + C(108) <= 1
C(63) + C(109) <= 1
C(64) + C(73) <= 1
C(64) + C(76) <= 1
C(64) + C(78) <= 1
C(64) + C(82) <= 1
C(64) + C(88) <= 1
C(64) + C(89) <= 1
C(64) + C(90) <= 1
C(64) + C(93) <= 1
C(64) + C(98) <= 1
C(64) + C(102) <= 1
C(64) + C(106) <= 1
C(65) + C(67) <= 1
C(65) + C(69) <= 1
C(65) + C(71) <= 1
C(65) + C(77) <= 1
C(65) + C(80) <= 1
C(65) + C(82) <= 1
C(65) + C(83) <= 1
C(65) + C(89) <= 1
C(65) + C(95) <= 1
C(65) + C(98) <= 1
C(65) + C(104) <= 1
C(65) + C(106) <= 1
C(65) + C(107) <= 1
C(66) + C(67) <= 1
C(66) + C(71) <= 1
C(66) + C(76) <= 1
C(66) + C(80) <= 1
C(66) + C(84) <= 1
C(66) + C(88) <= 1
C(66) + C(100) <= 1
C(66) + C(102) <= 1
C(66) + C(105) <= 1
C(67) + C(68) <= 1
C(67) + C(78) <= 1
C(67) + C(92) <= 1
C(67) + C(94) <= 1
C(67) + C(99) <= 1
C(67) + C(100) <= 1
C(67) + C(102) <= 1
C(67) + C(107) <= 1
C(68) + C(75) <= 1
C(68) + C(77) <= 1
C(68) + C(78) <= 1
C(68) + C(81) <= 1
C(68) + C(85) <= 1
C(68) + C(87) <= 1
C(68) + C(89) <= 1
C(68) + C(91) <= 1
C(68) + C(92) <= 1
C(68) + C(94) <= 1
C(68) + C(98) <= 1
C(68) + C(99) <= 1
C(68) + C(106) <= 1
C(69) + C(70) <= 1
C(69) + C(76) <= 1
C(69) + C(80) <= 1
C(69) + C(86) <= 1
C(69) + C(90) <= 1
C(69) + C(97) <= 1
C(69) + C(98) <= 1
C(69) + C(101) <= 1
C(69) + C(106) <= 1
C(69) + C(107) <= 1
C(70) + C(78) <= 1
C(70) + C(92) <= 1
C(70) + C(97) <= 1
C(70) + C(99) <= 1
C(70) + C(103) <= 1
C(70) + C(107) <= 1
C(71) + C(72) <= 1
C(71) + C(74) <= 1
C(71) + C(75) <= 1
C(71) + C(81) <= 1
C(71) + C(83) <= 1
C(71) + C(85) <= 1
C(71) + C(87) <= 1
C(71) + C(95) <= 1
C(71) + C(97) <= 1
C(71) + C(107) <= 1
C(72) + C(76) <= 1
C(72) + C(78) <= 1
C(72) + C(80) <= 1
C(72) + C(82) <= 1
C(72) + C(85) <= 1
C(72) + C(93) <= 1
C(72) + C(102) <= 1
C(72) + C(105) <= 1
C(72) + C(106) <= 1
C(72) + C(107) <= 1
C(72) + C(109) <= 1
C(73) + C(75) <= 1
C(73) + C(83) <= 1
C(73) + C(84) <= 1
C(73) + C(104) <= 1
C(73) + C(108) <= 1
C(74) + C(89) <= 1
C(74) + C(90) <= 1
C(74) + C(96) <= 1
C(74) + C(99) <= 1
C(74) + C(100) <= 1
C(74) + C(102) <= 1
C(74) + C(107) <= 1
C(75) + C(76) <= 1
C(75) + C(85) <= 1
C(75) + C(87) <= 1
C(75) + C(93) <= 1
C(75) + C(98) <= 1
C(75) + C(101) <= 1
C(75) + C(105) <= 1
C(75) + C(106) <= 1
C(76) + C(80) <= 1
C(76) + C(87) <= 1
C(76) + C(93) <= 1
C(76) + C(94) <= 1
C(76) + C(109) <= 1
C(77) + C(78) <= 1
C(77) + C(82) <= 1
C(77) + C(84) <= 1
C(77) + C(88) <= 1
C(77) + C(102) <= 1
C(77) + C(109) <= 1
C(78) + C(84) <= 1
C(78) + C(87) <= 1
C(78) + C(94) <= 1
C(78) + C(96) <= 1
C(78) + C(99) <= 1
C(78) + C(106) <= 1
C(79) + C(80) <= 1
C(79) + C(90) <= 1
C(79) + C(91) <= 1
C(79) + C(93) <= 1
C(79) + C(96) <= 1
C(79) + C(97) <= 1
C(79) + C(99) <= 1
C(79) + C(105) <= 1
C(80) + C(81) <= 1
C(80) + C(82) <= 1
C(80) + C(96) <= 1
C(80) + C(98) <= 1
C(80) + C(101) <= 1
C(80) + C(108) <= 1
C(81) + C(85) <= 1
C(81) + C(93) <= 1
C(81) + C(96) <= 1
C(81) + C(98) <= 1
C(81) + C(99) <= 1
C(81) + C(108) <= 1
C(81) + C(109) <= 1
C(82) + C(85) <= 1
C(82) + C(88) <= 1
C(82) + C(90) <= 1
C(82) + C(93) <= 1
C(82) + C(97) <= 1
C(82) + C(106) <= 1
C(83) + C(89) <= 1
C(83) + C(90) <= 1
C(83) + C(91) <= 1
C(83) + C(97) <= 1
C(83) + C(103) <= 1
C(83) + C(108) <= 1
C(84) + C(87) <= 1
C(84) + C(88) <= 1
C(84) + C(89) <= 1
C(84) + C(92) <= 1
C(84) + C(100) <= 1
C(84) + C(102) <= 1
C(84) + C(108) <= 1
C(85) + C(86) <= 1
C(85) + C(90) <= 1
C(85) + C(94) <= 1
C(85) + C(100) <= 1
C(86) + C(88) <= 1
C(86) + C(103) <= 1
C(87) + C(88) <= 1
C(87) + C(93) <= 1
C(87) + C(95) <= 1
C(87) + C(101) <= 1
C(87) + C(105) <= 1
C(88) + C(91) <= 1
C(88) + C(93) <= 1
C(88) + C(97) <= 1
C(88) + C(100) <= 1
C(88) + C(101) <= 1
C(88) + C(104) <= 1
C(88) + C(107) <= 1
C(88) + C(108) <= 1
C(88) + C(109) <= 1
C(89) + C(91) <= 1
C(89) + C(103) <= 1
C(89) + C(106) <= 1
C(90) + C(91) <= 1
C(90) + C(94) <= 1
C(90) + C(95) <= 1
C(90) + C(99) <= 1
C(90) + C(101) <= 1
C(90) + C(105) <= 1
C(90) + C(108) <= 1
C(90) + C(109) <= 1
C(91) + C(93) <= 1
C(91) + C(94) <= 1
C(91) + C(97) <= 1
C(91) + C(98) <= 1
C(91) + C(101) <= 1
C(92) + C(100) <= 1
C(92) + C(101) <= 1
C(92) + C(106) <= 1
C(92) + C(107) <= 1
C(93) + C(94) <= 1
C(93) + C(100) <= 1
C(93) + C(104) <= 1
C(93) + C(106) <= 1
C(94) + C(95) <= 1
C(94) + C(102) <= 1
C(95) + C(98) <= 1
C(95) + C(100) <= 1
C(95) + C(101) <= 1
C(95) + C(102) <= 1
C(96) + C(98) <= 1
C(96) + C(103) <= 1
C(96) + C(105) <= 1
C(97) + C(106) <= 1
C(98) + C(105) <= 1
C(98) + C(108) <= 1
C(99) + C(100) <= 1
C(99) + C(103) <= 1
C(99) + C(104) <= 1
C(99) + C(106) <= 1
C(99) + C(107) <= 1
C(100) + C(104) <= 1
C(100) + C(107) <= 1
C(100) + C(108) <= 1
C(101) + C(102) <= 1
C(101) + C(105) <= 1
C(101) + C(108) <= 1
C(101) + C(109) <= 1
C(102) + C(105) <= 1
C(103) + C(105) <= 1
C(103) + C(107) <= 1
C(104) + C(106) <= 1
C(104) + C(107) <= 1
C(104) + C(108) <= 1
C(105) + C(106) <= 1
C(106) + C(108) <= 1
binary 
C(1)
C(2)
C(3)
C(4)
C(5)
C(6)
C(7)
C(8)
C(9)
C(10)
C(11)
C(12)
C(13)
C(14)
C(15)
C(16)
C(17)
C(18)
C(19)
C(20)
C(21)
C(22)
C(23)
C(24)
C(25)
C(26)
C(27)
C(28)
C(29)
C(30)
C(31)
C(32)
C(33)
C(34)
C(35)
C(36)
C(37)
C(38)
C(39)
C(40)
C(41)
C(42)
C(43)
C(44)
C(45)
C(46)
C(47)
C(48)
C(49)
C(50)
C(51)
C(52)
C(53)
C(54)
C(55)
C(56)
C(57)
C(58)
C(59)
C(60)
C(61)
C(62)
C(63)
C(64)
C(65)
C(66)
C(67)
C(68)
C(69)
C(70)
C(71)
C(72)
C(73)
C(74)
C(75)
C(76)
C(77)
C(78)
C(79)
C(80)
C(81)
C(82)
C(83)
C(84)
C(85)
C(86)
C(87)
C(88)
C(89)
C(90)
C(91)
C(92)
C(93)
C(94)
C(95)
C(96)
C(97)
C(98)
C(99)
C(100)
C(101)
C(102)
C(103)
C(104)
C(105)
C(106)
C(107)
C(108)
C(109)
end